-18850.0 -18699.0 
-18285.0 -19226.0 
-18801.0 -18945.0 
-18450.0 -19199.0 
-18319.0 -19218.0 
-18551.0 -19180.0 
-18551.0 -19180.0 
-18630.0 -19170.0 
-18748.0 -19051.0 
-18779.0 -19007.0 
-18722.0 -19091.0 
-18658.0 -19154.0 
-18630.0 -19170.0 
-18709.0 -19096.0 
-18779.0 -19007.0 
-18751.0 -19032.0 
-18658.0 -19154.0 
-18674.0 -19140.0 
-18691.0 -19133.0 
-18722.0 -19091.0 
-18695.0 -19119.0 
-18764.0 -19019.0 
-18695.0 -19119.0 
-18764.0 -19019.0 
-18674.0 -19140.0 
-18709.0 -19096.0 
-18751.0 -19032.0 
-18691.0 -19133.0 
-18722.0 -19091.0 
-18695.0 -19119.0 
-18764.0 -19019.0 
-18709.0 -19096.0 
-18751.0 -19032.0 
-18691.0 -19133.0 
-18722.0 -19091.0 
-18722.0 -19091.0 
-18691.0 -19133.0 
-18722.0 -19091.0 
-18691.0 -19133.0 
-18722.0 -19091.0 
-18722.0 -19091.0 
-18691.0 -19133.0 
-18722.0 -19091.0 
-18722.0 -19091.0 
-18722.0 -19091.0 
-18764.0 -19019.0 
-18722.0 -19091.0 
-18722.0 -19091.0 
-18722.0 -19091.0 
-18722.0 -19091.0 
-18722.0 -19091.0 
-18722.0 -19091.0 
-18722.0 -19091.0 
-18691.0 -19133.0 
-18722.0 -19091.0 
-18722.0 -19091.0 
-18722.0 -19091.0 
-18751.0 -19032.0 
-18722.0 -19091.0 
-18722.0 -19091.0 
-18722.0 -19091.0 
-18722.0 -19091.0 
-18722.0 -19091.0 
-18722.0 -19091.0 
-18722.0 -19091.0 
-18691.0 -19133.0 
-18722.0 -19091.0 
-18709.0 -19096.0 
-18722.0 -19091.0 
-18722.0 -19091.0 
-18722.0 -19091.0 
-18691.0 -19133.0 
-18722.0 -19091.0 
-18691.0 -19133.0 
-18722.0 -19091.0 
-18722.0 -19091.0 
-18722.0 -19091.0 
-18722.0 -19091.0 
-18722.0 -19091.0 
-18722.0 -19091.0 
-18722.0 -19091.0 
-18722.0 -19091.0 
-18722.0 -19091.0 
-18722.0 -19091.0 
-18722.0 -19091.0 
-18722.0 -19091.0 
-18722.0 -19091.0 
-18722.0 -19091.0 
-18722.0 -19091.0 
-18722.0 -19091.0 
-18722.0 -19091.0 
-18722.0 -19091.0 
-18722.0 -19091.0 
-18722.0 -19091.0 
-18722.0 -19091.0 
-18722.0 -19091.0 
-18722.0 -19091.0 
-18722.0 -19091.0 
-18722.0 -19091.0 
-18722.0 -19091.0 
